200
750
525
525
524
521
521
517
516
515
510
510
509
495
495
491
489
485
483
482
478
477
474
474
473
466
466
458
458
456
454
453
450
449
448
445
443
442
438
437
428
428
426
425
424
419
418
410
409
405
403
401
400
398
391
390
390
389
384
383
382
374
374
372
371
371
366
360
355
350
349
348
347
343
340
337
333
333
329
329
328
325
325
322
322
321
318
314
312
311
310
310
309
308
306
304
303
301
298
297
296
295
294
292
291
290
289
286
284
282
274
274
273
273
272
271
266
265
261
259
255
253
253
249
247
246
245
244
244
242
240
237
233
229
229
228
226
218
216
215
210
209
207
204
203
203
202
201
198
198
195
193
191
190
185
185
180
177
177
173
172
171
165
164
163
162
161
158
156
155
154
151
151
151
145
145
143
143
142
140
138
132
123
115
114
113
112
110
110
104
102
102
100
97
97
93
90
88
86
84
77
77
